NAME: dj15
TYPE: TSP
DIMENSION: 15
EDGE_WEIGHT_TYPE: EUC_2D
NODE_COORD_SECTION
1 11461.111100 43252.777800
2 11485.555600 43187.222200
3 11503.055600 42855.277800
4 11511.388900 42106.388900
5 11522.222200 42841.944400
6 11569.444400 43136.666700
7 11583.333300 43150.000000
8 11595.000000 43148.055600
9 11600.000000 43150.000000
10 11690.555600 42686.666700
11 11715.833300 41836.111100
12 11751.111100 42814.444400
13 11770.277800 42651.944400
14 11785.277800 42884.444400
15 11846.944400 42660.555600